
GUB cover cuts applied:  3
Cover cuts applied:  4
Mixed integer rounding cuts applied:  1

Root node processing (before b&c):
  Real time             =    0.21 sec. (69.32 ticks)
Parallel b&c, 4 threads:
  Real time             =    0.00 sec. (0.00 ticks)
  Sync time (average)   =    0.00 sec.
  Wait time (average)   =    0.00 sec.
                          ------------
Total (root+branch&cut) =    0.21 sec. (69.32 ticks)
Version identifier: 12.10.0.0 | 2019-11-26 | 843d4de
CPXPARAM_MIP_Interval                            10
CPXPARAM_MIP_Tolerances_AbsMIPGap                0.98999999999999999
Tried aggregator 2 times.
MIP Presolve eliminated 7161 rows and 7186 columns.
MIP Presolve modified 1 coefficients.
Aggregator did 53 substitutions.
Reduced MIP has 1549 rows, 1181 columns, and 4741 nonzeros.
Reduced MIP has 1181 binaries, 0 generals, 0 SOSs, and 0 indicators.
Presolve time = 0.05 sec. (11.81 ticks)
Found incumbent of value 4.000000 after 0.08 sec. (25.35 ticks)
Probing fixed 22 vars, tightened 0 bounds.
Probing changed sense of 48 constraints.
Probing time = 0.00 sec. (5.23 ticks)
Tried aggregator 2 times.
MIP Presolve eliminated 224 rows and 167 columns.
Aggregator did 29 substitutions.
Reduced MIP has 1296 rows, 985 columns, and 3947 nonzeros.
Reduced MIP has 985 binaries, 0 generals, 0 SOSs, and 0 indicators.
Presolve time = 0.01 sec. (5.15 ticks)
Probing time = 0.00 sec. (2.29 ticks)
Tried aggregator 2 times.
Detecting symmetries...
MIP Presolve eliminated 98 rows and 79 columns.
Aggregator did 3 substitutions.
Reduced MIP has 1195 rows, 903 columns, and 3628 nonzeros.
Reduced MIP has 903 binaries, 0 generals, 0 SOSs, and 0 indicators.
Presolve time = 0.01 sec. (5.24 ticks)
Probing time = 0.00 sec. (1.95 ticks)
Clique table members: 898.
MIP emphasis: balance optimality and feasibility.
MIP search method: dynamic search.
Parallel mode: deterministic, using up to 4 threads.
Root relaxation solution time = 0.01 sec. (4.95 ticks)

        Nodes                                         Cuts/
   Node  Left     Objective  IInf  Best Integer    Best Bound    ItCnt     Gap

*     0+    0                            4.0000       20.0000           400.00%
*     0+    0                           10.0000       20.0000           100.00%
      0     0       12.5000   189       10.0000       12.5000      214   25.00%
      0     0       12.0000   189       10.0000      Cuts: 56      347   20.00%
*     0+    0                           11.0000       12.0000             9.09%
      0     0       12.0000   189       11.0000      Cuts: 95      422    9.09%
      0     0       12.0000   189       11.0000      Cuts: 71      488    9.09%
      0     0       12.0000   189       11.0000       Cuts: 4      526    9.09%
      0     0       12.0000   189       11.0000      Cuts: 89      694    9.09%
Detecting symmetries...
      0     0        cutoff             11.0000       11.0000      694    0.00%
Elapsed time = 0.35 sec. (186.82 ticks, tree = 0.01 MB, solutions = 3)
the number of Nodes = 0
